NAME : portcgen-23-1
COMMENT : portcgen N=23, seed=1
TYPE : TSP
DIMENSION : 23
EDGE_WEIGHT_TYPE : EUC_2D
NODE_COORD_SECTION
1 -140465 -286605
2 -101810 -119383
3 -45609 37948
4 -15683 -90256
5 -337087 100186
6 -137557 -219693
7 -287781 81178
8 187248 229208
9 234929 -119432
10 -123446 -127105
11 37987 99518
12 -118364 -35507
13 24418 -7479
14 -244887 373419
15 -76941 70676
16 -102750 -1235
17 -35729 12911
18 -190981 201871
19 2251 247303
20 7094 -264198
21 91887 185614
22 12714 86023
23 271624 16132
